interdiction/MCDM/NO_CORR/GEN_FROM_60/17_ITEMS_1000_GEN/K5017W16.KNP.mps
NAME          BLANK   
ROWS
 N  OBJROW
 L  R0000000
COLUMNS
    C0000000  OBJROW     -578.         R0000000  448.        
    C0000001  OBJROW     -152.         R0000000  617.        
    C0000002  OBJROW     -648.         R0000000  681.        
    C0000003  OBJROW     -435.         R0000000  403.        
    C0000004  OBJROW     -606.         R0000000  515.        
    C0000005  OBJROW     -844.         R0000000  470.        
    C0000006  OBJROW     -447.         R0000000  165.        
    C0000007  OBJROW     -308.         R0000000  172.        
    C0000008  OBJROW     -560.         R0000000  135.        
    C0000009  OBJROW     -664.         R0000000  669.        
    C0000010  OBJROW     -248.         R0000000  414.        
    C0000011  OBJROW     -595.         R0000000  251.        
    C0000012  OBJROW     -790.         R0000000  367.        
    C0000013  OBJROW     -967.         R0000000  253.        
    C0000014  OBJROW     -339.         R0000000  102.        
    C0000015  OBJROW     -963.         R0000000  598.        
    C0000016  OBJROW     -974.         R0000000  577.        
RHS
    RHS       R0000000  13852.      
BOUNDS
 BV BOUND     C0000000  1.          
 BV BOUND     C0000001  1.          
 BV BOUND     C0000002  1.          
 BV BOUND     C0000003  1.          
 BV BOUND     C0000004  1.          
 BV BOUND     C0000005  1.          
 BV BOUND     C0000006  1.          
 BV BOUND     C0000007  1.          
 BV BOUND     C0000008  1.          
 BV BOUND     C0000009  1.          
 BV BOUND     C0000010  1.          
 BV BOUND     C0000011  1.          
 BV BOUND     C0000012  1.          
 BV BOUND     C0000013  1.          
 BV BOUND     C0000014  1.          
 BV BOUND     C0000015  1.          
 BV BOUND     C0000016  1.          
ENDATA
