interdiction/MCDM/NO_CORR/GEN_FROM_60/17_ITEMS_1000_GEN/K5017W16.KNP.txt
N 17
M 18
LC 17
LC 18
LC 19
LC 20
LC 21
LC 22
LC 23
LC 24
LC 25
LC 26
LC 27
LC 28
LC 29
LC 30
LC 31
LC 32
LC 33
LR 1
LR 2
LR 3
LR 4
LR 5
LR 6
LR 7
LR 8
LR 9
LR 10
LR 11
LR 12
LR 13
LR 14
LR 15
LR 16
LR 17
LR 18
LO -578
LO -152
LO -648
LO -435
LO -606
LO -844
LO -447
LO -308
LO -560
LO -664
LO -248
LO -595
LO -790
LO -967
LO -339
LO -963
LO -974
OS 1
IC 716
IC 839
IC 72
IC 877
IC 30
IC 618
IC 257
IC 502
IC 395
IC 612
IC 492
IC 471
IC 68
IC 911
IC 467
IC 921
IC 474
IB 4361
